250 250 20
167 184 1
114 118 1
167 152 1
83 140 1
70 86 1
143 166 1
120 160 1
66 148 1
87 141 1
69 165 1
184 167 1
118 114 1
152 167 1
140 83 1
86 70 1
166 143 1
160 120 1
148 66 1
141 87 1
165 69 1